\ Model _copy
\ LP format - for model browsing. Use MPS format to capture full model detail.
Minimize
  0 ar4 + 0 av0
Subject To
 sc4: x2 - x3 - r4 = 0
 ss0: x0 - x1 - v0 = 1
 ss2: x1 - x2 - v2 = 1
Bounds
 -infinity <= x0 <= 3
 x1 free
 x2 free
 ar4 >= 0.1
 av0 >= 0.1
Generals
 x0 x1 x2 x3
General Constraints
 c4: ar4 = ABS ( r4 )
 s0: av0 = ABS ( v0 )
End
